9
0 94 48 74 50 71 50 92 11 
76 0 12 51 80 84 88 15 68 
96 25 0 26 86 75 61 81 94 
95 2 87 0 39 44 2 21 27 
97 52 27 94 0 5 9 27 77 
48 7 39 45 74 0 37 7 15 
23 63 69 85 59 87 0 64 4 
3 44 35 4 81 62 18 0 43 
37 62 25 10 49 16 100 28 0 
